(set-logic QF_SLIA)
(declare-fun var0 () String)
(assert (not (str.in_re var0 (re.++ ((_ re.loop 17 166) (re.++ (re.union (str.to_re "PDh") (re.union (str.to_re "xO") (re.union (str.to_re "v") (str.to_re "='7")))) (re.++ (re.union (str.to_re "K-/") (re.union (str.to_re "(") (re.union (str.to_re "Y$") (str.to_re "X.")))) (re.++ (re.union (str.to_re "c") (re.union (str.to_re "p") (re.union (str.to_re "!|r") (str.to_re "%A")))) (re.union (str.to_re "V'c") (re.union (str.to_re "i(") (re.union (str.to_re "Tb") (str.to_re ";")))))))) (re.++ ((_ re.loop 3 209) (re.++ (re.union (str.to_re ")2") (re.union (str.to_re "1") (re.union (str.to_re "0") (str.to_re "s")))) (re.++ (re.union (str.to_re "cb}") (re.union (str.to_re "*j(") (re.union (str.to_re "z^") (str.to_re ".")))) (re.++ (re.union (str.to_re "i") (re.union (str.to_re "h") (re.union (str.to_re "`Hi") (str.to_re "$:")))) (re.union (str.to_re "Ckr") (re.union (str.to_re "+") (re.union (str.to_re "1nx") (str.to_re "`")))))))) (re.++ ((_ re.loop 12 934) (re.++ (re.union (str.to_re "Gn@") (re.union (str.to_re "G") (re.union (str.to_re "V") (str.to_re "e")))) (re.++ (re.union (str.to_re "~Y*") (re.union (str.to_re "Qt{") (re.union (str.to_re "_Ro") (str.to_re "4q")))) (re.++ (re.union (str.to_re "8") (re.union (str.to_re "?p") (re.union (str.to_re "e/j") (str.to_re "A")))) (re.union (str.to_re "Uxl") (re.union (str.to_re "B") (re.union (str.to_re "3YN") (str.to_re "]x")))))))) ((_ re.loop 6 288) (re.++ (re.union (str.to_re "f") (re.union (str.to_re "\\~:") (re.union (str.to_re "Gk") (str.to_re "8K")))) (re.++ (re.union (str.to_re "ngd") (re.union (str.to_re "/") (re.union (str.to_re "qXT") (str.to_re "IR4")))) (re.++ (re.union (str.to_re "p'9") (re.union (str.to_re "9") (re.union (str.to_re ")l%") (str.to_re "n^")))) (re.union (str.to_re "hq") (re.union (str.to_re "\u0022") (re.union (str.to_re "j") (str.to_re ")Y"))))))))))))))
(assert (not (str.in_re var0 (re.++ ((_ re.loop 16 414) (re.++ (re.union (str.to_re "T'y") (re.union (str.to_re "!d$") (re.union (str.to_re ";") (str.to_re "A5b")))) (re.++ (re.union (str.to_re "d]s") (re.union (str.to_re "f") (re.union (str.to_re "r}") (str.to_re "p")))) (re.++ (re.union (str.to_re "'c9") (re.union (str.to_re "'#@") (re.union (str.to_re "=") (str.to_re "HdW")))) (re.union (str.to_re "38") (re.union (str.to_re "I") (re.union (str.to_re ">") (str.to_re "XS")))))))) (re.++ ((_ re.loop 11 664) (re.++ (re.union (str.to_re "KM\\") (re.union (str.to_re "oK") (re.union (str.to_re "Q}") (str.to_re "y")))) (re.++ (re.union (str.to_re "Eb") (re.union (str.to_re "deM") (re.union (str.to_re "*") (str.to_re "msu")))) (re.++ (re.union (str.to_re "Qz") (re.union (str.to_re "bL") (re.union (str.to_re "fF") (str.to_re "NP^")))) (re.union (str.to_re "b") (re.union (str.to_re "Ot") (re.union (str.to_re "]") (str.to_re "\\U%")))))))) (re.++ ((_ re.loop 18 683) (re.++ (re.union (str.to_re "*T") (re.union (str.to_re "-*x") (re.union (str.to_re "xzN") (str.to_re "j;")))) (re.++ (re.union (str.to_re "$xG") (re.union (str.to_re "ea;") (re.union (str.to_re "B") (str.to_re "/v")))) (re.++ (re.union (str.to_re "9t") (re.union (str.to_re "j") (re.union (str.to_re "Mmc") (str.to_re "D{")))) (re.union (str.to_re "V$H") (re.union (str.to_re "C?4") (re.union (str.to_re "H") (str.to_re ">\\")))))))) ((_ re.loop 14 894) (re.++ (re.union (str.to_re "G") (re.union (str.to_re ",wE") (re.union (str.to_re "_") (str.to_re ";u")))) (re.++ (re.union (str.to_re "r") (re.union (str.to_re "#C") (re.union (str.to_re "u") (str.to_re "wE7")))) (re.++ (re.union (str.to_re "s\\e") (re.union (str.to_re "6") (re.union (str.to_re "?M") (str.to_re "`$")))) (re.union (str.to_re "7") (re.union (str.to_re "F") (re.union (str.to_re ";S") (str.to_re "cdA"))))))))))))))
(assert (not (str.in_re var0 (re.++ (re.* re.allchar) (re.++ (re.union (str.to_re "<") (re.union (str.to_re ">") (re.union (str.to_re "'") (re.union (str.to_re "\u0022") (str.to_re "&"))))) (re.* re.allchar))))))
(assert (<= 50 (str.len var0)))
(check-sat)
(get-model)
